c Sudoku solution
p cnf 729 0
193 0
235 0
262 0
281 0
294 0
358 0
386 0
519 0
524 0
536 0
623 0
664 0
672 0
696 0
747 0
853 0
876 0
888 0
927 0
897 0
942 0
552 0
959 0
961 0
865 0
844 0
756 0
768 0
916 0
938 0
995 0
154 0
257 0
451 0
655 0
498 0
591 0
618 0
631 0
548 0
649 0
687 0
567 0
213 0
733 0
714 0
725 0
334 0
415 0
422 0
437 0
392 0
246 0
169 0
363 0
126 0
228 0
178 0
279 0
132 0
329 0
812 0
821 0
839 0
443 0
466 0
771 0
377 0
185 0
141 0
345 0
117 0
311 0
575 0
583 0
973 0
984 0
474 0
489 0
782 0
799 0
